NAME : custom-n9-sweep-close-angular-far-euclidean
COMMENT : ahreloco
TYPE : CVRP
DIMENSION : 9
EDGE_WEIGHT_TYPE : EUC_2D
CAPACITY : 100
NODE_COORD_SECTION
 1 0 0
 2 4 5
 3 5 4
 4 5 3
 5 5 1
 6 13 8
 7 15 6
 8 15 8
 9 17 8
DEMAND_SECTION
1 0
2 25
3 25
4 25
5 25
6 25
7 25
8 25
9 25
DEPOT_SECTION
 1
 -1
EOF
